solution status: optimal solution found
objective value:                                 -175
C11015                                              1 	(obj:-1)
C0227                                               1 	(obj:0)
C0228                                               1 	(obj:0)
C0368                                               1 	(obj:0)
C0372                                               1 	(obj:0)
C0456                                               1 	(obj:0)
C0461                                               1 	(obj:0)
C0826                                               1 	(obj:0)
C0829                                               1 	(obj:0)
C1385                                               1 	(obj:0)
C1386                                               1 	(obj:0)
C1801                                               1 	(obj:0)
C1804                                               1 	(obj:0)
C2035                                               1 	(obj:0)
C2036                                               1 	(obj:0)
C2482                                               1 	(obj:0)
C2484                                               1 	(obj:0)
C2683                                               1 	(obj:0)
C2687                                               1 	(obj:0)
C2756                                               1 	(obj:0)
C2757                                               1 	(obj:0)
C3017                                               1 	(obj:0)
C3021                                               1 	(obj:0)
C3039                                               1 	(obj:0)
C3043                                               1 	(obj:0)
C3362                                               1 	(obj:0)
C3365                                               1 	(obj:0)
C3711                                               1 	(obj:0)
C3718                                               1 	(obj:0)
C4059                                               1 	(obj:0)
C4063                                               1 	(obj:0)
C4430                                               1 	(obj:0)
C4432                                               1 	(obj:0)
C4603                                               1 	(obj:0)
C4610                                               1 	(obj:0)
C4977                                               1 	(obj:0)
C4978                                               1 	(obj:0)
C5175                                               1 	(obj:0)
C5178                                               1 	(obj:0)
C5274                                               1 	(obj:0)
C5275                                               1 	(obj:0)
C5765                                               1 	(obj:0)
C5771                                               1 	(obj:0)
C5847                                               1 	(obj:0)
C5851                                               1 	(obj:0)
C6019                                               1 	(obj:0)
C6020                                               1 	(obj:0)
C6515                                               1 	(obj:0)
C6516                                               1 	(obj:0)
C6523                                               1 	(obj:0)
C6524                                               1 	(obj:0)
C6707                                               1 	(obj:0)
C6712                                               1 	(obj:0)
C6867                                               1 	(obj:0)
C6869                                               1 	(obj:0)
C6981                                               1 	(obj:0)
C6983                                               1 	(obj:0)
C7101                                               1 	(obj:0)
C7110                                               1 	(obj:0)
C7535                                               1 	(obj:0)
C7537                                               1 	(obj:0)
C7809                                               1 	(obj:0)
C7817                                               1 	(obj:0)
C8002                                               1 	(obj:0)
C8003                                               1 	(obj:0)
C8283                                               1 	(obj:0)
C8285                                               1 	(obj:0)
C8383                                               1 	(obj:0)
C8387                                               1 	(obj:0)
C9003                                               1 	(obj:0)
C9009                                               1 	(obj:0)
C9131                                               1 	(obj:0)
C9135                                               1 	(obj:0)
C9141                                               1 	(obj:0)
C9146                                               1 	(obj:0)
C9579                                               1 	(obj:0)
C9586                                               1 	(obj:0)
C9611                                               1 	(obj:0)
C9615                                               1 	(obj:0)
C9854                                               1 	(obj:0)
C9868                                               1 	(obj:0)
C9879                                               1 	(obj:0)
C9919                                               1 	(obj:0)
C9977                                               1 	(obj:0)
C10022                                              1 	(obj:0)
C10048                                              1 	(obj:0)
C10095                                              1 	(obj:0)
C10118                                              1 	(obj:0)
C10125                                              1 	(obj:0)
C10154                                              1 	(obj:0)
C10156                                              1 	(obj:0)
C10190                                              1 	(obj:0)
C10227                                              1 	(obj:0)
C10263                                              1 	(obj:0)
C10303                                              1 	(obj:0)
C10323                                              1 	(obj:0)
C10363                                              1 	(obj:0)
C10384                                              1 	(obj:0)
C10395                                              1 	(obj:0)
C10447                                              1 	(obj:0)
C10455                                              1 	(obj:0)
C10475                                              1 	(obj:0)
C10527                                              1 	(obj:0)
C10528                                              1 	(obj:0)
C10549                                              1 	(obj:0)
C10565                                              1 	(obj:0)
C10577                                              1 	(obj:0)
C10591                                              1 	(obj:0)
C10637                                              1 	(obj:0)
C10667                                              1 	(obj:0)
C10686                                              1 	(obj:0)
C10717                                              1 	(obj:0)
C10727                                              1 	(obj:0)
C10794                                              1 	(obj:0)
C10807                                              1 	(obj:-10)
C10808                                              1 	(obj:-10)
C10857                                              1 	(obj:-10)
C10860                                              1 	(obj:-10)
C10882                                              1 	(obj:-1)
C10883                                              1 	(obj:-1)
C10884                                              1 	(obj:-1)
C10885                                              1 	(obj:-1)
C10886                                              1 	(obj:-1)
C10887                                              1 	(obj:-1)
C10888                                              1 	(obj:-1)
C10889                                              1 	(obj:-1)
C10890                                              1 	(obj:-1)
C10891                                              1 	(obj:-1)
C10892                                              1 	(obj:-1)
C10893                                              1 	(obj:-1)
C10894                                              1 	(obj:-1)
C10895                                              1 	(obj:-1)
C10896                                              1 	(obj:-1)
C10897                                              1 	(obj:-1)
C10898                                              1 	(obj:-1)
C10899                                              1 	(obj:-1)
C10900                                              1 	(obj:-1)
C10901                                              1 	(obj:-1)
C10902                                              1 	(obj:-1)
C10903                                              1 	(obj:-1)
C10904                                              1 	(obj:-1)
C10905                                              1 	(obj:-1)
C10906                                              1 	(obj:-1)
C10907                                              1 	(obj:-1)
C10908                                              1 	(obj:-1)
C10909                                              1 	(obj:-1)
C10910                                              1 	(obj:-1)
C10911                                              1 	(obj:-1)
C10912                                              1 	(obj:-1)
C10913                                              1 	(obj:-1)
C10914                                              1 	(obj:-1)
C10915                                              1 	(obj:-1)
C10916                                              1 	(obj:-1)
C10917                                              1 	(obj:-1)
C10918                                              1 	(obj:-1)
C10919                                              1 	(obj:-1)
C10920                                              1 	(obj:-1)
C10921                                              1 	(obj:-1)
C10922                                              1 	(obj:-1)
C10923                                              1 	(obj:-1)
C10924                                              1 	(obj:-1)
C10925                                              1 	(obj:-1)
C10926                                              1 	(obj:-1)
C10927                                              1 	(obj:-1)
C10928                                              1 	(obj:-1)
C10929                                              1 	(obj:-1)
C10930                                              1 	(obj:-1)
C10931                                              1 	(obj:-1)
C10932                                              1 	(obj:-1)
C10933                                              1 	(obj:-1)
C10934                                              1 	(obj:-1)
C10935                                              1 	(obj:-1)
C10936                                              1 	(obj:-1)
C10937                                              1 	(obj:-1)
C10938                                              1 	(obj:-1)
C10939                                              1 	(obj:-1)
C10940                                              1 	(obj:-1)
C10941                                              1 	(obj:-1)
C10942                                              1 	(obj:-1)
C10943                                              1 	(obj:-1)
C10944                                              1 	(obj:-1)
C10945                                              1 	(obj:-1)
C10946                                              1 	(obj:-1)
C10947                                              1 	(obj:-1)
C10948                                              1 	(obj:-1)
C10949                                              1 	(obj:-1)
C10950                                              1 	(obj:-1)
C10951                                              1 	(obj:-1)
C10952                                              1 	(obj:-1)
C10953                                              1 	(obj:-1)
C10954                                              1 	(obj:-1)
C10955                                              1 	(obj:-1)
C10956                                              1 	(obj:-1)
C10957                                              1 	(obj:-1)
C10958                                              1 	(obj:-1)
C10959                                              1 	(obj:-1)
C10960                                              1 	(obj:-1)
C10961                                              1 	(obj:-1)
C10962                                              1 	(obj:-1)
C10963                                              1 	(obj:-1)
C10964                                              1 	(obj:-1)
C10965                                              1 	(obj:-1)
C10966                                              1 	(obj:-1)
C10967                                              1 	(obj:-1)
C10968                                              1 	(obj:-1)
C10969                                              1 	(obj:-1)
C10970                                              1 	(obj:-1)
C10971                                              1 	(obj:-1)
C10972                                              1 	(obj:-1)
C10973                                              1 	(obj:-1)
C10974                                              1 	(obj:-1)
C10975                                              1 	(obj:-1)
C10976                                              1 	(obj:-1)
C10977                                              1 	(obj:-1)
C10978                                              1 	(obj:-1)
C10979                                              1 	(obj:-1)
C10980                                              1 	(obj:-1)
C10981                                              1 	(obj:-1)
C10982                                              1 	(obj:-1)
C10983                                              1 	(obj:-1)
C10984                                              1 	(obj:-1)
C10985                                              1 	(obj:-1)
C10986                                              1 	(obj:-1)
C10987                                              1 	(obj:-1)
C10988                                              1 	(obj:-1)
C10989                                              1 	(obj:-1)
C10990                                              1 	(obj:-1)
C10991                                              1 	(obj:-1)
C10992                                              1 	(obj:-1)
C10993                                              1 	(obj:-1)
C10994                                              1 	(obj:-1)
C10995                                              1 	(obj:-1)
C10996                                              1 	(obj:-1)
C10997                                              1 	(obj:-1)
C10998                                              1 	(obj:-1)
C10999                                              1 	(obj:-1)
C11000                                              1 	(obj:-1)
C11001                                              1 	(obj:-1)
C11002                                              1 	(obj:-1)
C11003                                              1 	(obj:-1)
C11004                                              1 	(obj:-1)
C11005                                              1 	(obj:-1)
C11006                                              1 	(obj:-1)
C11007                                              1 	(obj:-1)
C11008                                              1 	(obj:-1)
C11009                                              1 	(obj:-1)
C11010                                              1 	(obj:-1)
C11011                                              1 	(obj:-1)
C11012                                              1 	(obj:-1)
C11013                                              1 	(obj:-1)
C11014                                              1 	(obj:-1)
C11016                                              1 	(obj:-1)
